TCS_Benchmarks/redos_fix/snort1_output_distinct_2442_2441_1_0.txt
([^\n\r]*)([^\n\r]*)
([^\n\r]*)([rR][eE][pP][oO][rR][tT])([^\n\r]*)